HUN,8,6,492
1,21,3,24,0,29,5,29,2,22,4,28
2,25,5,30,4,29,3,21,0,27,1,27
2,22,1,24,3,25,4,25,5,28,0,23
2,23,1,28,5,28,4,27,3,23,0,28
4,30,0,24,1,24,3,23,5,25,2,24
4,24,2,29,1,27,5,30,3,27,0,29
1,21,5,22,2,23,3,28,4,29,0,25
0,28,1,24,5,24,4,22,3,23,2,23
